NAME: u574
COMMENT: Local search tour for u574 (43496.06345148999)
TYPE: TOUR
DIMENSION: 574
TOUR_SECTION: 1 574 573 572 571 48 49 50 51 52 53 58 59 60 61 62 63 64 129 130 128 127 131 132 133 134 135 136 124 125 126 70 69 68 67 66 65 71 72 73 74 116 117 115 75 76 77 78 79 82 83 84 86 85 110 109 108 107 105 106 104 103 102 101 100 99 122 120 121 111 112 113 114 118 119 123 98 97 96 139 138 137 140 141 142 143 145 144 146 147 148 149 150 151 152 169 170 171 172 173 174 285 286 287 288 289 290 291 292 293 294 295 296 305 306 297 298 299 301 300 311 310 312 309 302 303 304 307 308 282 283 284 188 187 281 315 314 313 316 317 318 320 319 324 325 326 323 321 322 272 271 270 332 329 328 327 330 331 337 336 335 334 333 269 268 267 266 273 264 265 389 390 388 387 386 384 383 385 382 381 379 380 378 375 374 373 372 339 338 340 342 341 343 344 371 370 345 346 347 369 368 367 350 349 348 351 352 364 363 353 354 355 356 358 357 412 413 414 415 416 417 418 419 420 421 425 426 427 428 424 423 422 446 448 442 443 444 447 445 441 434 433 432 431 430 429 439 438 437 440 436 435 453 452 451 456 455 454 486 487 488 489 490 492 491 496 495 494 493 497 498 499 500 501 502 503 505 504 534 526 527 533 535 537 538 539 540 542 541 543 548 549 552 551 550 546 547 545 544 536 529 530 532 531 528 525 524 523 522 521 520 511 512 510 509 508 506 507 513 514 516 517 518 519 247 246 245 244 243 242 241 226 227 225 224 223 230 229 228 231 234 235 236 237 240 239 206 205 204 203 202 248 249 201 200 199 198 250 251 253 252 254 464 465 466 475 476 474 515 477 478 479 480 481 482 483 484 485 472 473 471 470 467 469 468 457 459 458 460 463 462 461 396 258 259 257 255 256 395 397 398 399 450 449 401 400 402 403 404 405 409 408 410 411 359 360 361 362 365 366 376 377 407 406 394 393 392 391 261 260 262 263 274 275 276 277 278 279 280 192 191 193 194 190 189 196 195 197 207 238 208 209 232 233 211 210 184 185 186 183 182 181 180 179 178 177 176 175 168 167 166 213 214 215 212 216 217 218 219 22 23 24 27 26 25 165 164 155 154 153 156 157 158 159 160 163 162 161 95 94 93 92 91 90 89 87 88 29 28 30 31 35 34 33 32 19 20 18 17 21 220 221 222 16 15 14 13 12 553 554 555 556 557 559 560 561 562 563 6 5 7 558 8 9 10 11 36 37 38 39 40 43 42 41 81 80 56 57 55 54 44 45 46 47 2 3 4 564 565 566 567 570 569 568 -1
EOF